* ENCODING=ISO-8859-1
NAME          CPLEX
ROWS
 N  obj1    
 G  c1      
 G  c2      
 G  c3      
 G  c4      
 G  c5      
 G  c6      
 G  c7      
 G  c8      
 G  c9      
 G  c10     
 G  c11     
 G  c12     
 G  c13     
 G  c14     
 G  c15     
 G  c16     
 G  c17     
 G  c18     
 G  c19     
 G  c20     
 G  c21     
 G  c22     
 G  c23     
 G  c24     
 G  c25     
 G  c26     
 G  c27     
 G  c28     
 G  c29     
 G  c30     
 G  c31     
 G  c32     
 G  c33     
 G  c34     
 G  c35     
 G  c36     
 G  c37     
 G  c38     
 G  c39     
 G  c40     
COLUMNS
    MARK0000  'MARKER'                 'INTORG'
    x1        obj1                            1
    x1        c13                           807
    x1        c15                           335
    x1        c25                           605
    x2        obj1                            1
    x2        c16                           237
    x2        c20                           973
    x2        c35                           782
    x3        obj1                            1
    x3        c1                            357
    x3        c2                            550
    x3        c6                            645
    x3        c25                           616
    x4        obj1                            1
    x4        c1                            912
    x4        c4                            595
    x4        c10                           365
    x4        c33                           101
    x5        obj1                            1
    x5        c1                            843
    x5        c3                            618
    x5        c5                            687
    x5        c7                            876
    x5        c15                           371
    x5        c25                           122
    x5        c30                           238
    x6        obj1                            1
    x6        c14                           268
    x7        obj1                            1
    x7        c1                            957
    x7        c3                            244
    x7        c31                           389
    x7        c36                           435
    x8        obj1                            1
    x8        c3                            948
    x8        c10                           754
    x8        c26                           537
    x8        c31                           634
    x9        obj1                            1
    x9        c16                           757
    x9        c31                           614
    x10       obj1                            1
    x10       c7                            790
    x10       c31                           900
    x10       c37                           410
    x11       obj1                            1
    x11       c1                            136
    x11       c7                            220
    x11       c25                           272
    x12       obj1                            1
    x12       c5                            973
    x12       c12                           607
    x12       c18                           746
    x12       c19                           552
    x12       c23                           487
    x12       c27                           224
    x12       c34                           146
    x12       c40                           356
    x13       obj1                            1
    x13       c3                            983
    x13       c7                            385
    x13       c16                           933
    x13       c24                           321
    x13       c39                           435
    x14       obj1                            1
    x14       c11                           506
    x15       obj1                            1
    x15       c11                           741
    x15       c21                           414
    x15       c24                           883
    x15       c34                           531
    x16       obj1                            1
    x16       c38                           477
    x17       obj1                            1
    x17       c21                           547
    x17       c24                           940
    x17       c38                           925
    x17       c39                           729
    x17       c40                           999
    x18       obj1                            1
    x18       c17                           784
    x18       c34                           124
    x18       c35                           957
    x19       obj1                            1
    x19       c3                            774
    x19       c5                            905
    x19       c11                           782
    x19       c19                           916
    x19       c20                           368
    x19       c21                           794
    x19       c22                           491
    x20       obj1                            1
    x20       c1                            123
    x20       c15                           659
    x20       c23                           792
    x20       c26                           189
    x20       c28                           708
    x20       c36                           439
    x20       c38                           531
    x20       c40                           960
    x21       obj1                            1
    x21       c29                           720
    x21       c35                           903
    x21       c38                           339
    x22       obj1                            1
    x22       c19                           774
    x23       obj1                            1
    x23       c6                            718
    x23       c23                           119
    x23       c31                           536
    x24       obj1                            1
    x24       c7                            409
    x24       c10                           946
    x24       c25                           855
    x24       c32                           471
    x25       obj1                            1
    x25       c22                           494
    x25       c23                           280
    x25       c27                           479
    x25       c28                           933
    x25       c35                           854
    x26       obj1                            1
    x26       c15                           705
    x26       c27                           756
    x26       c33                           708
    x27       obj1                            1
    x27       c1                            407
    x27       c7                            146
    x27       c10                           741
    x27       c21                           495
    x27       c31                           614
    x27       c32                           180
    x28       obj1                            1
    x28       c12                           149
    x28       c24                           981
    x28       c39                           842
    x29       obj1                            1
    x29       c7                            545
    x29       c19                           788
    x30       obj1                            1
    x30       c2                            836
    x30       c3                            124
    x30       c8                            770
    x30       c10                           735
    x30       c29                           406
    x31       obj1                            1
    x31       c29                           715
    x31       c31                           574
    x31       c33                           711
    x31       c35                           901
    x31       c37                           816
    x31       c38                           959
    x31       c39                           620
    x32       obj1                            1
    x32       c28                           850
    x32       c39                           215
    x33       obj1                            1
    x33       c21                           303
    x33       c33                           540
    x34       obj1                            1
    x34       c6                            606
    x34       c9                            875
    x34       c12                           758
    x34       c21                           864
    x34       c34                           252
    x34       c35                           782
    x35       obj1                            1
    x35       c1                            121
    x35       c4                            672
    x35       c5                            627
    x35       c6                            327
    x35       c9                            530
    x35       c16                           148
    x35       c20                           533
    x35       c23                           641
    x35       c39                           688
    x36       obj1                            1
    x36       c14                           487
    x36       c22                           876
    x36       c29                           158
    x36       c35                           521
    x36       c38                           644
    x37       obj1                            1
    x37       c4                            534
    x37       c5                            285
    x37       c9                            527
    x37       c12                           436
    x37       c31                           834
    x37       c35                           420
    x37       c39                           934
    x38       obj1                            1
    x38       c8                            878
    x38       c18                           903
    x38       c34                           310
    x39       obj1                            1
    x39       c28                           927
    x39       c38                           690
    x40       obj1                            1
    x40       c2                            105
    x40       c4                            451
    x40       c16                           677
    x40       c19                           195
    x40       c34                           960
    x41       obj1                            1
    x41       c2                            972
    x41       c3                            206
    x41       c9                            465
    x41       c28                           244
    x42       obj1                            1
    x42       c7                            892
    x42       c12                           379
    x42       c16                           925
    x42       c22                           531
    x42       c39                           452
    x43       obj1                            1
    x43       c12                           371
    x43       c33                           426
    x43       c34                           407
    x44       obj1                            1
    x44       c2                            893
    x44       c17                           412
    x44       c24                           768
    x44       c25                           127
    x45       obj1                            1
    x45       c2                            898
    x45       c5                            319
    x45       c8                            161
    x45       c25                           564
    x46       obj1                            1
    x46       c5                            553
    x46       c23                           196
    x46       c24                           775
    x46       c30                           631
    x47       obj1                            1
    x47       c6                            213
    x47       c14                           804
    x47       c18                           442
    x47       c23                           222
    x47       c27                           827
    x47       c40                           223
    x48       obj1                            1
    x48       c3                            846
    x48       c35                           648
    x49       obj1                            1
    x49       c8                            493
    x49       c10                           979
    x50       obj1                            1
    x50       c4                            854
    x50       c8                            332
    x50       c9                            855
    x50       c27                           329
    x51       obj1                            1
    x51       c13                           141
    x51       c14                           113
    x51       c23                           209
    x51       c24                           899
    x52       obj1                            1
    x52       c10                           222
    x52       c12                           828
    x52       c13                           539
    x52       c32                           687
    x53       obj1                            1
    x53       c4                            133
    x53       c15                           362
    x53       c21                           619
    x53       c28                           202
    x54       obj1                            1
    x54       c4                            997
    x54       c15                           947
    x54       c24                           643
    x54       c40                           762
    x55       obj1                            1
    x55       c3                            236
    x55       c31                           495
    x55       c34                           298
    x55       c38                           487
    x55       c40                           174
    x56       obj1                            1
    x56       c7                            930
    x56       c11                           228
    x56       c25                           546
    x56       c33                           268
    x56       c34                           596
    x57       obj1                            1
    x57       c10                           808
    x57       c11                           383
    x57       c12                           460
    x57       c22                           837
    x57       c28                           282
    x57       c29                           529
    x57       c32                           471
    x58       obj1                            1
    x58       c19                           964
    x58       c34                           708
    x59       obj1                            1
    x59       c4                            755
    x59       c13                           715
    x59       c24                           672
    x60       obj1                            1
    x60       c25                           745
    x60       c36                           632
    x60       c38                           298
    x61       obj1                            1
    x61       c17                           479
    x61       c22                           734
    x61       c27                           326
    x61       c38                           576
    x62       obj1                            1
    x62       c5                            221
    x62       c10                           208
    x62       c16                           982
    x62       c20                           598
    x62       c23                           576
    x63       obj1                            1
    x63       c19                           856
    x63       c26                           530
    x63       c35                           543
    x64       obj1                            1
    x64       c2                            543
    x64       c4                            720
    x64       c20                           299
    x64       c31                           453
    x65       obj1                            1
    x65       c22                           591
    x65       c36                           168
    x66       obj1                            1
    x66       c27                           360
    x66       c34                           819
    x66       c36                           542
    x67       obj1                            1
    x67       c37                           846
    x67       c39                           815
    x68       obj1                            1
    x68       c8                            546
    x68       c25                           893
    x68       c30                           489
    x69       obj1                            1
    x69       c3                            217
    x69       c4                            558
    x69       c9                            955
    x69       c15                           132
    x69       c20                           796
    x69       c22                           773
    x70       obj1                            1
    x70       c3                            279
    x70       c6                            643
    x70       c10                           682
    x70       c18                           806
    x70       c24                           394
    x70       c30                           715
    x71       obj1                            1
    x71       c3                            953
    x71       c4                            714
    x71       c10                           516
    x71       c17                           598
    x72       obj1                            1
    x72       c1                            641
    x72       c19                           136
    x72       c22                           750
    x72       c40                           957
    x73       obj1                            1
    x73       c2                            701
    x73       c21                           673
    x73       c22                           671
    x73       c24                           152
    x73       c26                           669
    x73       c38                           859
    x73       c39                           927
    x74       obj1                            1
    x74       c8                            139
    x75       obj1                            1
    x75       c1                            503
    x75       c12                           868
    x75       c22                           506
    x75       c24                           258
    x75       c25                           871
    x75       c30                           824
    x75       c37                           434
    x76       obj1                            1
    x76       c4                            891
    x76       c19                           812
    x76       c33                           814
    x76       c40                           758
    x77       obj1                            1
    x77       c9                            272
    x77       c31                           654
    x78       obj1                            1
    x78       c11                           631
    x78       c12                           241
    x78       c20                           220
    x78       c33                           110
    x79       obj1                            1
    x79       c5                            260
    x79       c12                           986
    x79       c21                           138
    x79       c34                           629
    x79       c35                           131
    x79       c39                           841
    x80       obj1                            1
    x80       c1                            587
    x80       c15                           607
    x80       c19                           524
    x80       c23                           483
    x80       c27                           799
    x80       c39                           515
    x80       c40                           505
    MARK0001  'MARKER'                 'INTEND'
RHS
    rhs       c1                           2794
    rhs       c2                           2749
    rhs       c3                           3214
    rhs       c4                           3937
    rhs       c5                           2415
    rhs       c6                           1576
    rhs       c7                           2597
    rhs       c8                           1660
    rhs       c9                           2240
    rhs       c10                          3478
    rhs       c11                          1636
    rhs       c12                          3042
    rhs       c13                          1101
    rhs       c14                           836
    rhs       c15                          2059
    rhs       c16                          2330
    rhs       c17                          1137
    rhs       c18                          1449
    rhs       c19                          3259
    rhs       c20                          1894
    rhs       c21                          2424
    rhs       c22                          3627
    rhs       c23                          2003
    rhs       c24                          3843
    rhs       c25                          3108
    rhs       c26                           963
    rhs       c27                          2050
    rhs       c28                          2073
    rhs       c29                          1264
    rhs       c30                          1449
    rhs       c31                          3349
    rhs       c32                           905
    rhs       c33                          1839
    rhs       c34                          2890
    rhs       c35                          3721
    rhs       c36                          1108
    rhs       c37                          1253
    rhs       c38                          3393
    rhs       c39                          4007
    rhs       c40                          2847
BOUNDS
 LI bnd       x1        0
 LI bnd       x2        0
 LI bnd       x3        0
 LI bnd       x4        0
 LI bnd       x5        0
 LI bnd       x6        0
 LI bnd       x7        0
 LI bnd       x8        0
 LI bnd       x9        0
 LI bnd       x10       0
 LI bnd       x11       0
 LI bnd       x12       0
 LI bnd       x13       0
 LI bnd       x14       0
 LI bnd       x15       0
 LI bnd       x16       0
 LI bnd       x17       0
 LI bnd       x18       0
 LI bnd       x19       0
 LI bnd       x20       0
 LI bnd       x21       0
 LI bnd       x22       0
 LI bnd       x23       0
 LI bnd       x24       0
 LI bnd       x25       0
 LI bnd       x26       0
 LI bnd       x27       0
 LI bnd       x28       0
 LI bnd       x29       0
 LI bnd       x30       0
 LI bnd       x31       0
 LI bnd       x32       0
 LI bnd       x33       0
 LI bnd       x34       0
 LI bnd       x35       0
 LI bnd       x36       0
 LI bnd       x37       0
 LI bnd       x38       0
 LI bnd       x39       0
 LI bnd       x40       0
 LI bnd       x41       0
 LI bnd       x42       0
 LI bnd       x43       0
 LI bnd       x44       0
 LI bnd       x45       0
 LI bnd       x46       0
 LI bnd       x47       0
 LI bnd       x48       0
 LI bnd       x49       0
 LI bnd       x50       0
 LI bnd       x51       0
 LI bnd       x52       0
 LI bnd       x53       0
 LI bnd       x54       0
 LI bnd       x55       0
 LI bnd       x56       0
 LI bnd       x57       0
 LI bnd       x58       0
 LI bnd       x59       0
 LI bnd       x60       0
 LI bnd       x61       0
 LI bnd       x62       0
 LI bnd       x63       0
 LI bnd       x64       0
 LI bnd       x65       0
 LI bnd       x66       0
 LI bnd       x67       0
 LI bnd       x68       0
 LI bnd       x69       0
 LI bnd       x70       0
 LI bnd       x71       0
 LI bnd       x72       0
 LI bnd       x73       0
 LI bnd       x74       0
 LI bnd       x75       0
 LI bnd       x76       0
 LI bnd       x77       0
 LI bnd       x78       0
 LI bnd       x79       0
 LI bnd       x80       0
ENDATA
